(set-logic QF_LRA)
(declare-fun __z3_35 () Bool)
(declare-fun __z3_0 () Bool)
(declare-fun __z3_1 () Bool)
(declare-fun __z3_2 () Bool)
(declare-fun __z3_3 () Bool)
(declare-fun __z3_36 () Bool)
(declare-fun __z3_4 () Bool)
(declare-fun __z3_37 () Bool)
(declare-fun __z3_5 () Bool)
(declare-fun __z3_6 () Bool)
(declare-fun __z3_38 () Bool)
(declare-fun __z3_7 () Bool)
(declare-fun __z3_8 () Bool)
(declare-fun __z3_39 () Bool)
(declare-fun __z3_9 () Bool)
(declare-fun __z3_10 () Bool)
(declare-fun __z3_40 () Bool)
(declare-fun __z3_11 () Bool)
(declare-fun __z3_12 () Bool)
(declare-fun __z3_13 () Bool)
(declare-fun __z3_14 () Bool)
(declare-fun __z3_41 () Real)
(declare-fun __z3_15 () Bool)
(declare-fun __z3_42 () Real)
(declare-fun __z3_16 () Real)
(declare-fun __z3_17 () Real)
(declare-fun __z3_18 () Real)
(declare-fun __z3_19 () Real)
(declare-fun __z3_20 () Real)
(declare-fun __z3_45 () Real)
(declare-fun __z3_43 () Real)
(declare-fun __z3_46 () Real)
(declare-fun __z3_47 () Real)
(declare-fun __z3_21 () Bool)
(declare-fun __z3_22 () Real)
(declare-fun __z3_23 () Real)
(declare-fun __z3_48 () Real)
(declare-fun __z3_24 () Bool)
(declare-fun __z3_49 () Real)
(declare-fun __z3_25 () Bool)
(declare-fun __z3_26 () Bool)
(declare-fun __z3_50 () Real)
(declare-fun __z3_51 () Real)
(declare-fun __z3_27 () Bool)
(declare-fun __z3_52 () Real)
(declare-fun __z3_28 () Real)
(declare-fun __z3_29 () Bool)
(declare-fun __z3_44 () Bool)
(declare-fun __z3_30 () Bool)
(declare-fun __z3_31 () Real)
(declare-fun __z3_53 () Real)
(declare-fun __z3_32 () Bool)
(declare-fun __z3_54 () Real)
(declare-fun __z3_33 () Bool)
(declare-fun __z3_55 () Real)
(declare-fun __z3_34 () Bool)
(assert (let ((.def_0 (= __z3_42 __z3_55))) (let ((.def_1 (= __z3_31 5.0))) (let ((.def_2 (or .def_1 .def_0))) (let ((.def_3 (= __z3_42 __z3_49))) (let ((.def_4 (not .def_1))) (let ((.def_5 (or .def_4 .def_3))) (let ((.def_6 (= __z3_55 __z3_54))) (let ((.def_7 (= __z3_31 4.0))) (let ((.def_8 (or .def_7 .def_6))) (let ((.def_9 (= __z3_55 __z3_48))) (let ((.def_10 (not .def_7))) (let ((.def_11 (or .def_10 .def_9))) (let ((.def_12 (= __z3_54 __z3_53))) (let ((.def_13 (= __z3_31 3.0))) (let ((.def_14 (or .def_13 .def_12))) (let ((.def_15 (= __z3_54 __z3_47))) (let ((.def_16 (not .def_13))) (let ((.def_17 (or .def_16 .def_15))) (let ((.def_18 (= __z3_53 __z3_45))) (let ((.def_19 (= __z3_31 2.0))) (let ((.def_20 (or .def_19 .def_18))) (let ((.def_21 (= __z3_53 __z3_46))) (let ((.def_22 (not .def_19))) (let ((.def_23 (or .def_22 .def_21))) (let ((.def_24 (= __z3_41 __z3_52))) (let ((.def_25 (or .def_1 .def_24))) (let ((.def_26 (= __z3_41 __z3_20))) (let ((.def_27 (or .def_4 .def_26))) (let ((.def_28 (= __z3_52 __z3_51))) (let ((.def_29 (or .def_7 .def_28))) (let ((.def_30 (= __z3_52 __z3_19))) (let ((.def_31 (or .def_10 .def_30))) (let ((.def_32 (= __z3_51 __z3_50))) (let ((.def_33 (or .def_13 .def_32))) (let ((.def_34 (= __z3_51 __z3_18))) (let ((.def_35 (or .def_16 .def_34))) (let ((.def_36 (= __z3_50 __z3_16))) (let ((.def_37 (or .def_19 .def_36))) (let ((.def_38 (= __z3_50 __z3_17))) (let ((.def_39 (or .def_22 .def_38))) (let ((.def_40 (<= __z3_47 31.0))) (let ((.def_41 (<= 0.0 __z3_47))) (let ((.def_42 (<= __z3_46 31.0))) (let ((.def_43 (<= 0.0 __z3_46))) (let ((.def_44 (= __z3_23 0.0))) (let ((.def_45 (<= __z3_45 31.0))) (let ((.def_46 (<= 0.0 __z3_45))) (let ((.def_47 (= __z3_31 1.0))) (let ((.def_48 (or .def_47 .def_19 .def_13 .def_7 .def_1))) (let ((.def_49 (= __z3_22 5.0))) (let ((.def_50 (= __z3_22 4.0))) (let ((.def_51 (= __z3_22 3.0))) (let ((.def_52 (= __z3_22 2.0))) (let ((.def_53 (= __z3_22 1.0))) (let ((.def_54 (or .def_53 .def_52 .def_51 .def_50 .def_49))) (let ((.def_55 (<= __z3_49 31.0))) (let ((.def_56 (<= 0.0 __z3_49))) (let ((.def_57 (<= __z3_48 31.0))) (let ((.def_58 (<= 0.0 __z3_48))) (let ((.def_59 (and __z3_44 true .def_1))) (let ((.def_60 (= __z3_20 __z3_49))) (let ((.def_61 (not .def_60))) (let ((.def_62 (=> .def_61 .def_59))) (let ((.def_63 (and __z3_44 true .def_7))) (let ((.def_64 (= __z3_19 __z3_48))) (let ((.def_65 (not .def_64))) (let ((.def_66 (=> .def_65 .def_63))) (let ((.def_67 (and __z3_44 true .def_13))) (let ((.def_68 (= __z3_18 __z3_47))) (let ((.def_69 (not .def_68))) (let ((.def_70 (=> .def_69 .def_67))) (let ((.def_71 (and __z3_44 true .def_19))) (let ((.def_72 (= __z3_17 __z3_46))) (let ((.def_73 (not .def_72))) (let ((.def_74 (=> .def_73 .def_71))) (let ((.def_75 (and __z3_44 true .def_47))) (let ((.def_76 (= __z3_16 __z3_45))) (let ((.def_77 (not .def_76))) (let ((.def_78 (=> .def_77 .def_75))) (let ((.def_79 (+ __z3_28 10.0))) (let ((.def_80 (= __z3_28 .def_79))) (let ((.def_81 (and __z3_44 true .def_80 .def_44 .def_49))) (let ((.def_82 (= __z3_15 __z3_27))) (let ((.def_83 (not .def_82))) (let ((.def_84 (=> .def_83 .def_81))) (let ((.def_85 (and __z3_44 true .def_80 .def_44 .def_50))) (let ((.def_86 (= __z3_14 __z3_26))) (let ((.def_87 (not .def_86))) (let ((.def_88 (=> .def_87 .def_85))) (let ((.def_89 (and __z3_44 true .def_80 .def_44 .def_51))) (let ((.def_90 (= __z3_13 __z3_25))) (let ((.def_91 (not .def_90))) (let ((.def_92 (=> .def_91 .def_89))) (let ((.def_93 (and __z3_44 true .def_80 .def_44 .def_52))) (let ((.def_94 (= __z3_12 __z3_24))) (let ((.def_95 (not .def_94))) (let ((.def_96 (=> .def_95 .def_93))) (let ((.def_97 (and __z3_44 true .def_80 .def_44 .def_53))) (let ((.def_98 (= __z3_1 __z3_21))) (let ((.def_99 (not .def_98))) (let ((.def_100 (=> .def_99 .def_97))) (let ((.def_101 (and __z3_44 true .def_44 .def_1))) (let ((.def_102 (= __z3_0 __z3_40))) (let ((.def_103 (not .def_102))) (let ((.def_104 (=> .def_103 .def_101))) (let ((.def_105 (and __z3_44 true .def_44 .def_7))) (let ((.def_106 (= __z3_11 __z3_39))) (let ((.def_107 (not .def_106))) (let ((.def_108 (=> .def_107 .def_105))) (let ((.def_109 (and __z3_44 true .def_44 .def_13))) (let ((.def_110 (= __z3_10 __z3_38))) (let ((.def_111 (not .def_110))) (let ((.def_112 (=> .def_111 .def_109))) (let ((.def_113 (and __z3_44 true .def_44 .def_19))) (let ((.def_114 (= __z3_9 __z3_37))) (let ((.def_115 (not .def_114))) (let ((.def_116 (=> .def_115 .def_113))) (let ((.def_117 (and __z3_44 true .def_44 .def_47))) (let ((.def_118 (= __z3_8 __z3_36))) (let ((.def_119 (not .def_118))) (let ((.def_120 (=> .def_119 .def_117))) (let ((.def_121 (+ __z3_28 4.0))) (let ((.def_122 (= __z3_28 .def_121))) (let ((.def_123 (and __z3_44 true .def_122 .def_44 .def_1))) (let ((.def_124 (= __z3_7 __z3_35))) (let ((.def_125 (not .def_124))) (let ((.def_126 (=> .def_125 .def_123))) (let ((.def_127 (and __z3_44 true .def_122 .def_44 .def_7))) (let ((.def_128 (= __z3_6 __z3_34))) (let ((.def_129 (not .def_128))) (let ((.def_130 (=> .def_129 .def_127))) (let ((.def_131 (and __z3_44 true .def_122 .def_44 .def_13))) (let ((.def_132 (= __z3_5 __z3_33))) (let ((.def_133 (not .def_132))) (let ((.def_134 (=> .def_133 .def_131))) (let ((.def_135 (and __z3_44 true .def_122 .def_44 .def_19))) (let ((.def_136 (= __z3_4 __z3_32))) (let ((.def_137 (not .def_136))) (let ((.def_138 (=> .def_137 .def_135))) (let ((.def_139 (and __z3_44 true .def_122 .def_44 .def_47))) (let ((.def_140 (= __z3_3 __z3_30))) (let ((.def_141 (not .def_140))) (let ((.def_142 (=> .def_141 .def_139))) (let ((.def_143 (and __z3_44 true .def_122))) (let ((.def_144 (and __z3_44 true))) (let ((.def_145 (and .def_144 .def_143))) (let ((.def_146 (not .def_145))) (let ((.def_147 (or .def_144 .def_143))) (let ((.def_148 (= __z3_2 __z3_29))) (let ((.def_149 (not .def_148))) (let ((.def_150 (=> .def_149 .def_147))) (let ((.def_151 (<= 0.0 __z3_28))) (let ((.def_152 (and .def_44 .def_52))) (let ((.def_153 (or .def_152 __z3_21))) (let ((.def_154 (not .def_152))) (let ((.def_155 (or .def_154 __z3_24))) (let ((.def_156 (and .def_155 .def_153))) (let ((.def_157 (and .def_44 .def_51))) (let ((.def_158 (or .def_157 .def_156))) (let ((.def_159 (not .def_157))) (let ((.def_160 (or .def_159 __z3_25))) (let ((.def_161 (and .def_160 .def_158))) (let ((.def_162 (and .def_44 .def_50))) (let ((.def_163 (or .def_162 .def_161))) (let ((.def_164 (not .def_162))) (let ((.def_165 (or .def_164 __z3_26))) (let ((.def_166 (and .def_165 .def_163))) (let ((.def_167 (and .def_44 .def_49))) (let ((.def_168 (or .def_167 .def_166))) (let ((.def_169 (not .def_167))) (let ((.def_170 (or .def_169 __z3_27))) (let ((.def_171 (and .def_170 .def_168))) (let ((.def_172 (= .def_171 true))) (let ((.def_173 (=> true .def_172))) (let ((.def_174 (and .def_80 .def_173))) (let ((.def_175 (= __z3_29 false))) (let ((.def_176 (=> true .def_175))) (let ((.def_177 (and .def_44 .def_19))) (let ((.def_178 (or .def_177 __z3_30))) (let ((.def_179 (not .def_177))) (let ((.def_180 (or .def_179 __z3_32))) (let ((.def_181 (and .def_180 .def_178))) (let ((.def_182 (and .def_44 .def_13))) (let ((.def_183 (or .def_182 .def_181))) (let ((.def_184 (not .def_182))) (let ((.def_185 (or .def_184 __z3_33))) (let ((.def_186 (and .def_185 .def_183))) (let ((.def_187 (and .def_44 .def_7))) (let ((.def_188 (or .def_187 .def_186))) (let ((.def_189 (not .def_187))) (let ((.def_190 (or .def_189 __z3_34))) (let ((.def_191 (and .def_190 .def_188))) (let ((.def_192 (and .def_44 .def_1))) (let ((.def_193 (or .def_192 .def_191))) (let ((.def_194 (not .def_192))) (let ((.def_195 (or .def_194 __z3_35))) (let ((.def_196 (and .def_195 .def_193))) (let ((.def_197 (= .def_196 true))) (let ((.def_198 (=> true .def_197))) (let ((.def_199 (and .def_122 .def_198 .def_176))) (let ((.def_200 (or .def_177 __z3_36))) (let ((.def_201 (or .def_179 __z3_37))) (let ((.def_202 (and .def_201 .def_200))) (let ((.def_203 (or .def_182 .def_202))) (let ((.def_204 (or .def_184 __z3_38))) (let ((.def_205 (and .def_204 .def_203))) (let ((.def_206 (or .def_187 .def_205))) (let ((.def_207 (or .def_189 __z3_39))) (let ((.def_208 (and .def_207 .def_206))) (let ((.def_209 (or .def_192 .def_208))) (let ((.def_210 (or .def_194 __z3_40))) (let ((.def_211 (and .def_210 .def_209))) (let ((.def_212 (= .def_211 true))) (let ((.def_213 (=> true .def_212))) (let ((.def_214 (= __z3_29 true))) (let ((.def_215 (=> true .def_214))) (let ((.def_216 (+ __z3_41 1.0))) (let ((.def_217 (= __z3_42 .def_216))) (let ((.def_218 (=> true .def_217))) (let ((.def_219 (= __z3_28 __z3_28))) (let ((.def_220 (and .def_219 .def_218 .def_215 .def_213))) (let ((.def_221 (or .def_152 __z3_8))) (let ((.def_222 (or .def_154 __z3_9))) (let ((.def_223 (and .def_222 .def_221))) (let ((.def_224 (or .def_157 .def_223))) (let ((.def_225 (or .def_159 __z3_10))) (let ((.def_226 (and .def_225 .def_224))) (let ((.def_227 (or .def_162 .def_226))) (let ((.def_228 (or .def_164 __z3_11))) (let ((.def_229 (and .def_228 .def_227))) (let ((.def_230 (or .def_167 .def_229))) (let ((.def_231 (or .def_169 __z3_0))) (let ((.def_232 (and .def_231 .def_230))) (let ((.def_233 (+ __z3_28 __z3_43))) (let ((.def_234 (<= .def_233 __z3_28))) (let ((.def_235 (< (- 1.0) .def_233))) (let ((.def_236 (and .def_235 .def_234))) (let ((.def_237 (=> .def_236 .def_232))) (let ((.def_238 (or .def_177 __z3_1))) (let ((.def_239 (or .def_179 __z3_12))) (let ((.def_240 (and .def_239 .def_238))) (let ((.def_241 (or .def_182 .def_240))) (let ((.def_242 (or .def_184 __z3_13))) (let ((.def_243 (and .def_242 .def_241))) (let ((.def_244 (or .def_187 .def_243))) (let ((.def_245 (or .def_189 __z3_14))) (let ((.def_246 (and .def_245 .def_244))) (let ((.def_247 (or .def_192 .def_246))) (let ((.def_248 (or .def_194 __z3_15))) (let ((.def_249 (and .def_248 .def_247))) (let ((.def_250 (or .def_177 __z3_8))) (let ((.def_251 (or .def_179 __z3_9))) (let ((.def_252 (and .def_251 .def_250))) (let ((.def_253 (or .def_182 .def_252))) (let ((.def_254 (or .def_184 __z3_10))) (let ((.def_255 (and .def_254 .def_253))) (let ((.def_256 (or .def_187 .def_255))) (let ((.def_257 (or .def_189 __z3_11))) (let ((.def_258 (and .def_257 .def_256))) (let ((.def_259 (or .def_192 .def_258))) (let ((.def_260 (or .def_194 __z3_0))) (let ((.def_261 (and .def_260 .def_259))) (let ((.def_262 (not .def_261))) (let ((.def_263 (or .def_177 __z3_3))) (let ((.def_264 (or .def_179 __z3_4))) (let ((.def_265 (and .def_264 .def_263))) (let ((.def_266 (or .def_182 .def_265))) (let ((.def_267 (or .def_184 __z3_5))) (let ((.def_268 (and .def_267 .def_266))) (let ((.def_269 (or .def_187 .def_268))) (let ((.def_270 (or .def_189 __z3_6))) (let ((.def_271 (and .def_270 .def_269))) (let ((.def_272 (or .def_192 .def_271))) (let ((.def_273 (or .def_194 __z3_7))) (let ((.def_274 (and .def_273 .def_272))) (let ((.def_275 (not .def_274))) (let ((.def_276 (not __z3_2))) (let ((.def_277 (and .def_19 .def_53))) (let ((.def_278 (or .def_277 false))) (let ((.def_279 (not .def_277))) (let ((.def_280 (or .def_279 false))) (let ((.def_281 (and .def_280 .def_278))) (let ((.def_282 (and .def_13 .def_53))) (let ((.def_283 (or .def_282 .def_281))) (let ((.def_284 (not .def_282))) (let ((.def_285 (or .def_284 false))) (let ((.def_286 (and .def_285 .def_283))) (let ((.def_287 (and .def_7 .def_53))) (let ((.def_288 (or .def_287 .def_286))) (let ((.def_289 (not .def_287))) (let ((.def_290 (or .def_289 false))) (let ((.def_291 (and .def_290 .def_288))) (let ((.def_292 (and .def_1 .def_53))) (let ((.def_293 (or .def_292 .def_291))) (let ((.def_294 (not .def_292))) (let ((.def_295 (or .def_294 false))) (let ((.def_296 (and .def_295 .def_293))) (let ((.def_297 (and .def_47 .def_52))) (let ((.def_298 (or .def_297 .def_296))) (let ((.def_299 (not .def_297))) (let ((.def_300 (or .def_299 true))) (let ((.def_301 (and .def_300 .def_298))) (let ((.def_302 (and .def_19 .def_52))) (let ((.def_303 (or .def_302 .def_301))) (let ((.def_304 (not .def_302))) (let ((.def_305 (or .def_304 false))) (let ((.def_306 (and .def_305 .def_303))) (let ((.def_307 (and .def_13 .def_52))) (let ((.def_308 (or .def_307 .def_306))) (let ((.def_309 (not .def_307))) (let ((.def_310 (or .def_309 false))) (let ((.def_311 (and .def_310 .def_308))) (let ((.def_312 (and .def_7 .def_52))) (let ((.def_313 (or .def_312 .def_311))) (let ((.def_314 (not .def_312))) (let ((.def_315 (or .def_314 false))) (let ((.def_316 (and .def_315 .def_313))) (let ((.def_317 (and .def_1 .def_52))) (let ((.def_318 (or .def_317 .def_316))) (let ((.def_319 (not .def_317))) (let ((.def_320 (or .def_319 false))) (let ((.def_321 (and .def_320 .def_318))) (let ((.def_322 (and .def_47 .def_51))) (let ((.def_323 (or .def_322 .def_321))) (let ((.def_324 (not .def_322))) (let ((.def_325 (or .def_324 false))) (let ((.def_326 (and .def_325 .def_323))) (let ((.def_327 (and .def_19 .def_51))) (let ((.def_328 (or .def_327 .def_326))) (let ((.def_329 (not .def_327))) (let ((.def_330 (or .def_329 true))) (let ((.def_331 (and .def_330 .def_328))) (let ((.def_332 (and .def_13 .def_51))) (let ((.def_333 (or .def_332 .def_331))) (let ((.def_334 (not .def_332))) (let ((.def_335 (or .def_334 false))) (let ((.def_336 (and .def_335 .def_333))) (let ((.def_337 (and .def_7 .def_51))) (let ((.def_338 (or .def_337 .def_336))) (let ((.def_339 (not .def_337))) (let ((.def_340 (or .def_339 false))) (let ((.def_341 (and .def_340 .def_338))) (let ((.def_342 (and .def_1 .def_51))) (let ((.def_343 (or .def_342 .def_341))) (let ((.def_344 (not .def_342))) (let ((.def_345 (or .def_344 false))) (let ((.def_346 (and .def_345 .def_343))) (let ((.def_347 (and .def_47 .def_50))) (let ((.def_348 (or .def_347 .def_346))) (let ((.def_349 (not .def_347))) (let ((.def_350 (or .def_349 false))) (let ((.def_351 (and .def_350 .def_348))) (let ((.def_352 (and .def_19 .def_50))) (let ((.def_353 (or .def_352 .def_351))) (let ((.def_354 (not .def_352))) (let ((.def_355 (or .def_354 false))) (let ((.def_356 (and .def_355 .def_353))) (let ((.def_357 (and .def_13 .def_50))) (let ((.def_358 (or .def_357 .def_356))) (let ((.def_359 (not .def_357))) (let ((.def_360 (or .def_359 true))) (let ((.def_361 (and .def_360 .def_358))) (let ((.def_362 (and .def_7 .def_50))) (let ((.def_363 (or .def_362 .def_361))) (let ((.def_364 (not .def_362))) (let ((.def_365 (or .def_364 false))) (let ((.def_366 (and .def_365 .def_363))) (let ((.def_367 (and .def_1 .def_50))) (let ((.def_368 (or .def_367 .def_366))) (let ((.def_369 (not .def_367))) (let ((.def_370 (or .def_369 false))) (let ((.def_371 (and .def_370 .def_368))) (let ((.def_372 (and .def_47 .def_49))) (let ((.def_373 (or .def_372 .def_371))) (let ((.def_374 (not .def_372))) (let ((.def_375 (or .def_374 false))) (let ((.def_376 (and .def_375 .def_373))) (let ((.def_377 (and .def_19 .def_49))) (let ((.def_378 (or .def_377 .def_376))) (let ((.def_379 (not .def_377))) (let ((.def_380 (or .def_379 false))) (let ((.def_381 (and .def_380 .def_378))) (let ((.def_382 (and .def_13 .def_49))) (let ((.def_383 (or .def_382 .def_381))) (let ((.def_384 (not .def_382))) (let ((.def_385 (or .def_384 false))) (let ((.def_386 (and .def_385 .def_383))) (let ((.def_387 (and .def_7 .def_49))) (let ((.def_388 (or .def_387 .def_386))) (let ((.def_389 (not .def_387))) (let ((.def_390 (or .def_389 true))) (let ((.def_391 (and .def_390 .def_388))) (let ((.def_392 (and .def_1 .def_49))) (let ((.def_393 (or .def_392 .def_391))) (let ((.def_394 (not .def_392))) (let ((.def_395 (or .def_394 false))) (let ((.def_396 (and .def_395 .def_393))) (let ((.def_397 (= 0.0 __z3_41))) (let ((.def_398 (and .def_397 .def_396 .def_276 .def_275 .def_262 .def_249))) (let ((.def_399 (<= __z3_28 __z3_28))) (let ((.def_400 (< (- 1.0) __z3_28))) (let ((.def_401 (and .def_400 .def_399))) (let ((.def_402 (=> .def_401 .def_398))) (let ((.def_403 (<= __z3_43 15.0))) (let ((.def_404 (<= 15.0 __z3_43))) (let ((.def_405 (and .def_404 .def_403))) (let ((.def_406 (and .def_405 .def_234 .def_402 .def_237 .def_220 .def_199 .def_174))) (let ((.def_407 (=> __z3_44 .def_406))) (let ((.def_408 (<= __z3_20 31.0))) (let ((.def_409 (<= 0.0 __z3_20))) (let ((.def_410 (<= __z3_19 31.0))) (let ((.def_411 (<= 0.0 __z3_19))) (let ((.def_412 (<= __z3_18 31.0))) (let ((.def_413 (<= 0.0 __z3_18))) (let ((.def_414 (<= __z3_17 31.0))) (let ((.def_415 (<= 0.0 __z3_17))) (let ((.def_416 (<= __z3_16 31.0))) (let ((.def_417 (<= 0.0 __z3_16))) (let ((.def_418 (= __z3_20 0.0))) (let ((.def_419 (= __z3_19 0.0))) (let ((.def_420 (= __z3_18 0.0))) (let ((.def_421 (= __z3_17 0.0))) (let ((.def_422 (= __z3_16 0.0))) (let ((.def_423 (= false false))) (let ((.def_424 (= __z3_15 false))) (let ((.def_425 (= __z3_14 false))) (let ((.def_426 (= __z3_13 false))) (let ((.def_427 (= __z3_12 false))) (let ((.def_428 (= __z3_11 false))) (let ((.def_429 (= __z3_10 false))) (let ((.def_430 (= __z3_9 false))) (let ((.def_431 (= __z3_8 false))) (let ((.def_432 (= __z3_7 false))) (let ((.def_433 (= __z3_6 false))) (let ((.def_434 (= __z3_5 false))) (let ((.def_435 (= __z3_4 false))) (let ((.def_436 (= __z3_3 false))) (let ((.def_437 (= __z3_2 false))) (let ((.def_438 (= __z3_1 true))) (let ((.def_439 (= __z3_0 true))) (let ((.def_440 (= true true))) (let ((.def_441 (= 0.0 0.0))) (let ((.def_442 (and .def_441 .def_440 .def_440 .def_440 .def_440 .def_439 .def_438 .def_437 .def_436 .def_435 .def_434 .def_433 .def_432 .def_431 .def_430 .def_429 .def_428 .def_427 .def_426 .def_425 .def_424 .def_423 .def_423 .def_423 .def_423 .def_423 .def_423 .def_423 .def_423 .def_423 .def_423 .def_423 .def_423 .def_423 .def_423 .def_423 .def_423 .def_423 .def_423 .def_423 .def_423 .def_423 .def_422 .def_421 .def_420 .def_419 .def_418 .def_417 .def_416 .def_415 .def_414 .def_413 .def_412 .def_411 .def_410 .def_409 .def_408 .def_407 .def_151 .def_150 .def_146 .def_142 .def_138 .def_134 .def_130 .def_126 .def_120 .def_116 .def_112 .def_108 .def_104 .def_100 .def_96 .def_92 .def_88 .def_84 .def_78 .def_74 .def_70 .def_66 .def_62 .def_58 .def_57 .def_56 .def_55 .def_54 .def_48 .def_46 .def_45 .def_44 .def_43 .def_42 .def_41 .def_40 .def_39 .def_37 .def_35 .def_33 .def_31 .def_29 .def_27 .def_25 .def_23 .def_20 .def_17 .def_14 .def_11 .def_8 .def_5 .def_2))) .def_442))))))))))))))))))))))))))))))))))))))))))))))))))))))))))))))))))))))))))))))))))))))))))))))))))))))))))))))))))))))))))))))))))))))))))))))))))))))))))))))))))))))))))))))))))))))))))))))))))))))))))))))))))))))))))))))))))))))))))))))))))))))))))))))))))))))))))))))))))))))))))))))))))))))))))))))))))))))))))))))))))))))))))))))))))))))))))))))))))))))))))))))))))))))))))))))))))))))))))))))))))))))))))))))))))))))))))))))))))))))))))))
(check-sat)
